\* Problem: steiner *\

Minimize
 obj: + 2 x1i9 + 5.0990195274353 x1i10 + 10.7703294754028 x1i11
 + 12.0415945053101 x1i12 + 14.5602197647095 x1i13
 + 9.05538558959961 x1i14 + 4.12310552597046 x2i9
 + 3.60555124282837 x2i10 + 10.6301460266113 x2i11
 + 9.48683261871338 x2i12 + 13.6014709472656 x2i13
 + 7.81024980545044 x2i14 + 6.40312433242798 x3i9
 + 6.08276271820068 x3i10 + 4.12310552597046 x3i11
 + 8.48528099060059 x3i12 + 8.06225776672363 x3i13 + 5 x3i14
 + 8.06225776672363 x4i9 + 5 x4i10 + 8.06225776672363 x4i11
 + 4.24264049530029 x4i12 + 9.43398094177246 x4i13 + 5 x4i14
 + 9.21954441070557 x5i9 + 6.70820379257202 x5i10
 + 2.2360680103302 x5i11 + 3.16227769851685 x5i12
 + 3.60555124282837 x5i13 + 2.2360680103302 x5i14
 + 13.0384044647217 x6i9 + 10 x6i10 + 7.07106781005859 x6i11 + 3 x6i12
 + 5.0990195274353 x6i13 + 6.32455539703369 x6i14
 + 13.0384044647217 x7i9 + 11.3137083053589 x7i10
 + 4.24264049530029 x7i11 + 8.06225776672363 x7i12
 + 3.16227769851685 x7i13 + 7.21110248565674 x7i14
 + 16.4924221038818 x8i9 + 13.9283885955811 x8i10 + 8 x8i11
 + 7.81024980545044 x8i12 + 4 x8i13 + 9.48683261871338 x8i14
 + 3.16227769851685 x9i10 + 8.9442720413208 x9i11
 + 10.0498752593994 x9i12 + 12.6491107940674 x9i13
 + 7.07106781005859 x9i14 + 7.07106781005859 x10i11 + 7 x10i12
 + 10.2956304550171 x10i13 + 4.4721360206604 x10i14
 + 5.38516473770142 x11i12 + 4 x11i13 + 3.16227769851685 x11i14
 + 5.38516473770142 x12i13 + 3.60555124282837 x12i14
 + 5.83095169067383 x13i14

Subject To
 p1: 0 x1i9 = 1
 p2: 0 x1i9 = 1
 p3: 0 x1i9 = 1
 p4: 0 x1i9 = 1
 p5: 0 x1i9 = 1
 p6: 0 x1i9 = 1
 p7: 0 x1i9 = 1
 p8: 0 x1i9 = 1
 q9: 0 x1i9 = 3
 q10: 0 x1i9 = 3
 q11: 0 x1i9 = 3
 q12: 0 x1i9 = 3
 q13: 0 x1i9 = 3
 q14: 0 x1i9 = 3

Bounds
 0 <= x1i9 <= 1
 0 <= x1i10 <= 1
 0 <= x1i11 <= 1
 0 <= x1i12 <= 1
 0 <= x1i13 <= 1
 0 <= x1i14 <= 1
 0 <= x2i9 <= 1
 0 <= x2i10 <= 1
 0 <= x2i11 <= 1
 0 <= x2i12 <= 1
 0 <= x2i13 <= 1
 0 <= x2i14 <= 1
 0 <= x3i9 <= 1
 0 <= x3i10 <= 1
 0 <= x3i11 <= 1
 0 <= x3i12 <= 1
 0 <= x3i13 <= 1
 0 <= x3i14 <= 1
 0 <= x4i9 <= 1
 0 <= x4i10 <= 1
 0 <= x4i11 <= 1
 0 <= x4i12 <= 1
 0 <= x4i13 <= 1
 0 <= x4i14 <= 1
 0 <= x5i9 <= 1
 0 <= x5i10 <= 1
 0 <= x5i11 <= 1
 0 <= x5i12 <= 1
 0 <= x5i13 <= 1
 0 <= x5i14 <= 1
 0 <= x6i9 <= 1
 0 <= x6i10 <= 1
 0 <= x6i11 <= 1
 0 <= x6i12 <= 1
 0 <= x6i13 <= 1
 0 <= x6i14 <= 1
 0 <= x7i9 <= 1
 0 <= x7i10 <= 1
 0 <= x7i11 <= 1
 0 <= x7i12 <= 1
 0 <= x7i13 <= 1
 0 <= x7i14 <= 1
 0 <= x8i9 <= 1
 0 <= x8i10 <= 1
 0 <= x8i11 <= 1
 0 <= x8i12 <= 1
 0 <= x8i13 <= 1
 0 <= x8i14 <= 1
 0 <= x9i10 <= 1
 0 <= x9i11 <= 1
 0 <= x9i12 <= 1
 0 <= x9i13 <= 1
 0 <= x9i14 <= 1
 0 <= x10i11 <= 1
 0 <= x10i12 <= 1
 0 <= x10i13 <= 1
 0 <= x10i14 <= 1
 0 <= x11i12 <= 1
 0 <= x11i13 <= 1
 0 <= x11i14 <= 1
 0 <= x12i13 <= 1
 0 <= x12i14 <= 1
 0 <= x13i14 <= 1

Generals
 x1i9
 x1i10
 x1i11
 x1i12
 x1i13
 x1i14
 x2i9
 x2i10
 x2i11
 x2i12
 x2i13
 x2i14
 x3i9
 x3i10
 x3i11
 x3i12
 x3i13
 x3i14
 x4i9
 x4i10
 x4i11
 x4i12
 x4i13
 x4i14
 x5i9
 x5i10
 x5i11
 x5i12
 x5i13
 x5i14
 x6i9
 x6i10
 x6i11
 x6i12
 x6i13
 x6i14
 x7i9
 x7i10
 x7i11
 x7i12
 x7i13
 x7i14
 x8i9
 x8i10
 x8i11
 x8i12
 x8i13
 x8i14
 x9i10
 x9i11
 x9i12
 x9i13
 x9i14
 x10i11
 x10i12
 x10i13
 x10i14
 x11i12
 x11i13
 x11i14
 x12i13
 x12i14
 x13i14

End
